8600
8949
7945
1951
3512
6991
5339
7110
4374
6838
1201
3968
5445
1762
3354
6592
9444
4782
2715
4299
9495
9077
6113
7953
5987
2554
2500
8836
1733
6965
6982
8027
5804
2583
4159
7495
9315
7123
2516
2464
4623
2442
7389
1520
7838
3480
1252
6302
4577
10053
